language Essence 1.3

letting blksize_delta be
        function(1 --> 8, 2 --> 8, 3 --> 8, 4 --> 8, 5 --> 8, 6 --> 8, 7 --> 8, 8 --> 8, 9 --> 8, 10 --> 8, 11 --> 8,
                 12 --> 9, 13 --> 8, 14 --> 8, 15 --> 8, 16 --> 8, 17 --> 8, 18 --> 8, 19 --> 8, 20 --> 8, 21 --> 8,
                 22 --> 8, 23 --> 8, 24 --> 8, 25 --> 8)
letting maxcars be
        function(1 --> 9, 2 --> 9, 3 --> 9, 4 --> 9, 5 --> 9, 6 --> 9, 7 --> 9, 8 --> 9, 9 --> 10, 10 --> 9, 11 --> 9,
                 12 --> 9, 13 --> 9, 14 --> 9, 15 --> 9, 16 --> 9, 17 --> 10, 18 --> 9, 19 --> 9, 20 --> 9, 21 --> 9,
                 22 --> 9, 23 --> 9, 24 --> 9, 25 --> 10)
letting n_cars be 213
letting n_classes be 25
letting n_options be 25
letting quantity be
        function(1 --> 8, 2 --> 8, 3 --> 12, 4 --> 14, 5 --> 8, 6 --> 8, 7 --> 8, 8 --> 8, 9 --> 8, 10 --> 8, 11 --> 8,
                 12 --> 8, 13 --> 8, 14 --> 8, 15 --> 8, 16 --> 8, 17 --> 8, 18 --> 8, 19 --> 8, 20 --> 8, 21 --> 9,
                 22 --> 9, 23 --> 8, 24 --> 8, 25 --> 9)
letting usage be
        relation((1, 8), (1, 10), (2, 4), (2, 14), (2, 23), (2, 24), (3, 6), (3, 16), (3, 17), (3, 21), (3, 24), (4, 2),
                 (4, 6), (4, 12), (4, 25), (5, 2), (5, 12), (5, 13), (6, 15), (6, 17), (7, 7), (7, 25), (8, 16),
                 (9, 16), (9, 24), (9, 25), (10, 4), (11, 12), (11, 25), (12, 2), (13, 25), (14, 2), (15, 2), (15, 16),
                 (15, 24), (16, 11), (16, 12), (16, 15), (17, 5), (17, 6), (17, 16), (17, 22), (17, 23), (18, 10),
                 (19, 1), (19, 15), (19, 24), (20, 1), (20, 2), (20, 18), (20, 25), (21, 2), (21, 8), (22, 18), (23, 7),
                 (23, 17), (23, 19), (23, 20), (24, 3), (24, 9), (24, 10), (24, 13), (24, 16), (24, 24), (25, 6),
                 (25, 13))
$ Visualisation for usage
$  1  8
$  1 10
$  2  4
$  2 14
$  2 23
$  2 24
$  3  6
$  3 16
$  3 17
$  3 21
$  3 24
$  4  2
$  4  6
$  4 12
$  4 25
$  5  2
$  5 12
$  5 13
$  6 15
$  6 17
$  7  7
$  7 25
$  8 16
$  9 16
$  9 24
$  9 25
$ 10  4
$ 11 12
$ 11 25
$ 12  2
$ 13 25
$ 14  2
$ 15  2
$ 15 16
$ 15 24
$ 16 11
$ 16 12
$ 16 15
$ 17  5
$ 17  6
$ 17 16
$ 17 22
$ 17 23
$ 18 10
$ 19  1
$ 19 15
$ 19 24
$ 20  1
$ 20  2
$ 20 18
$ 20 25
$ 21  2
$ 21  8
$ 22 18
$ 23  7
$ 23 17
$ 23 19
$ 23 20
$ 24  3
$ 24  9
$ 24 10
$ 24 13
$ 24 16
$ 24 24
$ 25  6
$ 25 13

